instances/p2/p2_4_20-4.dzn
Alphabet = {A,C,G,T};
ns = 4;
nc = 10;
neighbours = [| I(C),I(G),I(T),I(C),I(G),I(T),I(T),I(G),I(T),Null | I(C),I(G),I(T),I(T),I(C),I(G),I(C),I(C),I(G),I(C) | I(C),I(A),I(C),I(C),I(C),I(C),I(T),I(G),I(C),I(T) | I(A),I(T),I(A),I(A),I(T),I(A),Null,Null,Null,Null |];
