instances/p2/p2_4_20-4.txt
{
	"num_strings": 4,
	"alphabet": "ACGT",
	"strings": [
		"CGTCGTTGT",
		"CGTTCGCCGC",
		"CACCCCTGCT",
		"ATAATA"
	],
	"str_length":[9,10,10,6]
}